<?xml version="1.0" encoding="UTF-8"?><osil xmlns="os.optimizationservices.org"   xmlns:xsi="http://www.w3.org/2001/XMLSchema-instance" xsi:schemaLocation="os.optimizationservices.org http://www.optimizationservices.org/schemas/2.0/OSiL.xsd" ><instanceHeader><name>q_20_0_25_5</name></instanceHeader><instanceData><variables numberOfVariables="20"><var name="x1" ub="1"/><var name="x2" ub="1"/><var name="x3" ub="1"/><var name="x4" ub="1"/><var name="x5" ub="1"/><var name="x6" ub="1"/><var name="x7" ub="1"/><var name="x8" ub="1"/><var name="x9" ub="1"/><var name="x10" ub="1"/><var name="x11" ub="1"/><var name="x12" ub="1"/><var name="x13" ub="1"/><var name="x14" ub="1"/><var name="x15" ub="1"/><var name="x16" ub="1"/><var name="x17" ub="1"/><var name="x18" ub="1"/><var name="x19" ub="1"/><var name="x20" ub="1"/></variables><objectives numberOfObjectives="1"><obj maxOrMin="min" name="defObj_x21" numberOfObjCoef="20"><coef idx="0">-9.85e-2</coef><coef idx="1">.3703</coef><coef idx="2">.6679</coef><coef idx="3">.8643</coef><coef idx="4">.533</coef><coef idx="5">.1871</coef><coef idx="6">-.1905</coef><coef idx="7">.9994</coef><coef idx="8">-.7306</coef><coef idx="9">-.2797</coef><coef idx="10">-.7742</coef><coef idx="11">.2634</coef><coef idx="12">-.6882</coef><coef idx="13">-.1916</coef><coef idx="14">-.6292</coef><coef idx="15">.3706</coef><coef idx="16">.2252</coef><coef idx="17">-.5111</coef><coef idx="18">-.7106</coef><coef idx="19">.436</coef></obj></objectives><quadraticCoefficients  numberOfQuadraticTerms="52" ><qTerm  idx="-1"  idxOne="0"  idxTwo="6"  coef="1.9983"/><qTerm  idx="-1"  idxOne="0"  idxTwo="7"  coef="1.3977"/><qTerm  idx="-1"  idxOne="0"  idxTwo="8"  coef="-.3472"/><qTerm  idx="-1"  idxOne="0"  idxTwo="19"  coef="-2.31e-2"/><qTerm  idx="-1"  idxOne="1"  idxTwo="4"  coef="-1.3325"/><qTerm  idx="-1"  idxOne="1"  idxTwo="9"  coef=".7866"/><qTerm  idx="-1"  idxOne="1"  idxTwo="11"  coef="-1.7672"/><qTerm  idx="-1"  idxOne="1"  idxTwo="13"  coef="-1.2887"/><qTerm  idx="-1"  idxOne="2"  idxTwo="3"  coef="-1.1395"/><qTerm  idx="-1"  idxOne="2"  idxTwo="4"  coef="-1.4811"/><qTerm  idx="-1"  idxOne="2"  idxTwo="7"  coef="1.3578"/><qTerm  idx="-1"  idxOne="2"  idxTwo="10"  coef="-.8284"/><qTerm  idx="-1"  idxOne="2"  idxTwo="13"  coef="-.4811"/><qTerm  idx="-1"  idxOne="2"  idxTwo="14"  coef=".1659"/><qTerm  idx="-1"  idxOne="2"  idxTwo="15"  coef="-1.5817"/><qTerm  idx="-1"  idxOne="2"  idxTwo="19"  coef="-8.e-2"/><qTerm  idx="-1"  idxOne="3"  idxTwo="4"  coef=".7898"/><qTerm  idx="-1"  idxOne="3"  idxTwo="10"  coef="-1.3042"/><qTerm  idx="-1"  idxOne="3"  idxTwo="15"  coef="-.9941"/><qTerm  idx="-1"  idxOne="3"  idxTwo="17"  coef="-1.1779"/><qTerm  idx="-1"  idxOne="3"  idxTwo="19"  coef="-1.6524"/><qTerm  idx="-1"  idxOne="4"  idxTwo="8"  coef=".5146"/><qTerm  idx="-1"  idxOne="4"  idxTwo="13"  coef=".1446"/><qTerm  idx="-1"  idxOne="4"  idxTwo="16"  coef=".606"/><qTerm  idx="-1"  idxOne="5"  idxTwo="5"  coef=".1986"/><qTerm  idx="-1"  idxOne="5"  idxTwo="7"  coef="-1.3831"/><qTerm  idx="-1"  idxOne="5"  idxTwo="17"  coef=".1757"/><qTerm  idx="-1"  idxOne="6"  idxTwo="12"  coef="1.911"/><qTerm  idx="-1"  idxOne="6"  idxTwo="18"  coef="1.8207"/><qTerm  idx="-1"  idxOne="7"  idxTwo="17"  coef="-4.07e-2"/><qTerm  idx="-1"  idxOne="8"  idxTwo="11"  coef="1.778"/><qTerm  idx="-1"  idxOne="8"  idxTwo="12"  coef=".6506"/><qTerm  idx="-1"  idxOne="8"  idxTwo="14"  coef="-1.9534"/><qTerm  idx="-1"  idxOne="8"  idxTwo="16"  coef="-1.444"/><qTerm  idx="-1"  idxOne="8"  idxTwo="18"  coef=".879"/><qTerm  idx="-1"  idxOne="9"  idxTwo="12"  coef="-1.1032"/><qTerm  idx="-1"  idxOne="10"  idxTwo="12"  coef="1.1078"/><qTerm  idx="-1"  idxOne="10"  idxTwo="13"  coef="8.96e-2"/><qTerm  idx="-1"  idxOne="11"  idxTwo="17"  coef="-1.7539"/><qTerm  idx="-1"  idxOne="11"  idxTwo="18"  coef="-.8559"/><qTerm  idx="-1"  idxOne="12"  idxTwo="13"  coef=".4027"/><qTerm  idx="-1"  idxOne="12"  idxTwo="18"  coef="-.3845"/><qTerm  idx="-1"  idxOne="13"  idxTwo="14"  coef="-.3148"/><qTerm  idx="-1"  idxOne="13"  idxTwo="16"  coef="1.8725"/><qTerm  idx="-1"  idxOne="13"  idxTwo="18"  coef=".8669"/><qTerm  idx="-1"  idxOne="14"  idxTwo="15"  coef="-1.0884"/><qTerm  idx="-1"  idxOne="14"  idxTwo="16"  coef="-1.9835"/><qTerm  idx="-1"  idxOne="14"  idxTwo="17"  coef="1.0295"/><qTerm  idx="-1"  idxOne="15"  idxTwo="16"  coef=".1515"/><qTerm  idx="-1"  idxOne="15"  idxTwo="17"  coef="-1.4368"/><qTerm  idx="-1"  idxOne="18"  idxTwo="18"  coef="1.0129"/><qTerm  idx="-1"  idxOne="18"  idxTwo="19"  coef="-1.0629"/></quadraticCoefficients></instanceData></osil>
